(set-logic HORN)
(declare-datatypes ((Nat_1 0)) (((Z_1 ) (S_1 (unS_0 Nat_1)))))
(declare-fun diseqNat_0 (Nat_1 Nat_1) Bool)
(declare-fun unS_1 (Nat_1 Nat_1) Bool)
(declare-fun isZ_0 (Nat_1) Bool)
(declare-fun isS_0 (Nat_1) Bool)
(assert (forall ((x_9 Nat_1) (x_8 Nat_1))
	(=> (= x_9 (S_1 x_8))
	    (unS_1 x_8 x_9))))
(assert (isZ_0 Z_1))
(assert (forall ((x_10 Nat_1))
	(isS_0 (S_1 x_10))))
(assert (forall ((x_11 Nat_1))
	(diseqNat_0 Z_1 (S_1 x_11))))
(assert (forall ((x_12 Nat_1))
	(diseqNat_0 (S_1 x_12) Z_1)))
(assert (forall ((x_13 Nat_1) (x_14 Nat_1))
	(=> (diseqNat_0 x_13 x_14)
	    (diseqNat_0 (S_1 x_13) (S_1 x_14)))))
(declare-fun add_0 (Nat_1 Nat_1 Nat_1) Bool)
(declare-fun minus_0 (Nat_1 Nat_1 Nat_1) Bool)
(declare-fun le_0 (Nat_1 Nat_1) Bool)
(declare-fun ge_0 (Nat_1 Nat_1) Bool)
(declare-fun lt_0 (Nat_1 Nat_1) Bool)
(declare-fun gt_0 (Nat_1 Nat_1) Bool)
(declare-fun mult_0 (Nat_1 Nat_1 Nat_1) Bool)
(declare-fun div_0 (Nat_1 Nat_1 Nat_1) Bool)
(declare-fun mod_0 (Nat_1 Nat_1 Nat_1) Bool)
(assert (forall ((y_1 Nat_1))
	(add_0 y_1 Z_1 y_1)))
(assert (forall ((x_6 Nat_1) (y_1 Nat_1) (r_0 Nat_1))
	(=> (add_0 r_0 x_6 y_1)
	    (add_0 (S_1 r_0) (S_1 x_6) y_1))))
(assert (forall ((y_1 Nat_1))
	(minus_0 Z_1 Z_1 y_1)))
(assert (forall ((x_6 Nat_1) (y_1 Nat_1) (r_0 Nat_1))
	(=> (minus_0 r_0 x_6 y_1)
	    (minus_0 (S_1 r_0) (S_1 x_6) y_1))))
(assert (forall ((y_1 Nat_1))
	(le_0 Z_1 y_1)))
(assert (forall ((x_6 Nat_1) (y_1 Nat_1))
	(=> (le_0 x_6 y_1)
	    (le_0 (S_1 x_6) (S_1 y_1)))))
(assert (forall ((y_1 Nat_1))
	(ge_0 y_1 Z_1)))
(assert (forall ((x_6 Nat_1) (y_1 Nat_1))
	(=> (ge_0 x_6 y_1)
	    (ge_0 (S_1 x_6) (S_1 y_1)))))
(assert (forall ((y_1 Nat_1))
	(lt_0 Z_1 (S_1 y_1))))
(assert (forall ((x_6 Nat_1) (y_1 Nat_1))
	(=> (lt_0 x_6 y_1)
	    (lt_0 (S_1 x_6) (S_1 y_1)))))
(assert (forall ((y_1 Nat_1))
	(gt_0 (S_1 y_1) Z_1)))
(assert (forall ((x_6 Nat_1) (y_1 Nat_1))
	(=> (gt_0 x_6 y_1)
	    (gt_0 (S_1 x_6) (S_1 y_1)))))
(assert (forall ((y_1 Nat_1))
	(mult_0 Z_1 Z_1 y_1)))
(assert (forall ((x_6 Nat_1) (y_1 Nat_1) (r_0 Nat_1) (z_0 Nat_1))
	(=>	(and (mult_0 r_0 x_6 y_1)
			(add_0 z_0 r_0 y_1))
		(mult_0 z_0 (S_1 x_6) y_1))))
(assert (forall ((x_6 Nat_1) (y_1 Nat_1))
	(=> (lt_0 x_6 y_1)
	    (div_0 Z_1 x_6 y_1))))
(assert (forall ((x_6 Nat_1) (y_1 Nat_1) (r_0 Nat_1) (z_0 Nat_1))
	(=>	(and (ge_0 x_6 y_1)
			(minus_0 z_0 x_6 y_1)
			(div_0 r_0 z_0 y_1))
		(div_0 (S_1 r_0) x_6 y_1))))
(assert (forall ((x_6 Nat_1) (y_1 Nat_1))
	(=> (lt_0 x_6 y_1)
	    (mod_0 x_6 x_6 y_1))))
(assert (forall ((x_6 Nat_1) (y_1 Nat_1) (r_0 Nat_1) (z_0 Nat_1))
	(=>	(and (ge_0 x_6 y_1)
			(minus_0 z_0 x_6 y_1)
			(mod_0 r_0 z_0 y_1))
		(mod_0 r_0 x_6 y_1))))
(declare-datatypes ((Nat_0 0)) (((S_0 (projS_0 Nat_0)) (Z_0 ))))
(declare-fun diseqNat_1 (Nat_0 Nat_0) Bool)
(declare-fun projS_1 (Nat_0 Nat_0) Bool)
(declare-fun isS_1 (Nat_0) Bool)
(declare-fun isZ_1 (Nat_0) Bool)
(assert (forall ((x_16 Nat_0) (x_15 Nat_0))
	(=> (= x_16 (S_0 x_15))
	    (projS_1 x_15 x_16))))
(assert (forall ((x_18 Nat_0))
	(isS_1 (S_0 x_18))))
(assert (isZ_1 Z_0))
(assert (forall ((x_19 Nat_0))
	(diseqNat_1 (S_0 x_19) Z_0)))
(assert (forall ((x_20 Nat_0))
	(diseqNat_1 Z_0 (S_0 x_20))))
(assert (forall ((x_21 Nat_0) (x_22 Nat_0))
	(=> (diseqNat_1 x_21 x_22)
	    (diseqNat_1 (S_0 x_21) (S_0 x_22)))))
(declare-datatypes ((list_0 0)) (((nil_0 ) (cons_0 (head_0 Nat_0) (tail_0 list_0)))))
(declare-fun diseqlist_0 (list_0 list_0) Bool)
(declare-fun head_1 (Nat_0 list_0) Bool)
(declare-fun tail_1 (list_0 list_0) Bool)
(declare-fun isnil_0 (list_0) Bool)
(declare-fun iscons_0 (list_0) Bool)
(assert (forall ((x_26 list_0) (x_24 Nat_0) (x_25 list_0))
	(=> (= x_26 (cons_0 x_24 x_25))
	    (head_1 x_24 x_26))))
(assert (forall ((x_26 list_0) (x_24 Nat_0) (x_25 list_0))
	(=> (= x_26 (cons_0 x_24 x_25))
	    (tail_1 x_25 x_26))))
(assert (isnil_0 nil_0))
(assert (forall ((x_27 Nat_0) (x_28 list_0))
	(iscons_0 (cons_0 x_27 x_28))))
(assert (forall ((x_29 Nat_0) (x_30 list_0))
	(diseqlist_0 nil_0 (cons_0 x_29 x_30))))
(assert (forall ((x_31 Nat_0) (x_32 list_0))
	(diseqlist_0 (cons_0 x_31 x_32) nil_0)))
(assert (forall ((x_33 Nat_0) (x_34 list_0) (x_35 Nat_0) (x_36 list_0))
	(=> (diseqNat_1 x_33 x_35)
	    (diseqlist_0 (cons_0 x_33 x_34) (cons_0 x_35 x_36)))))
(assert (forall ((x_33 Nat_0) (x_34 list_0) (x_35 Nat_0) (x_36 list_0))
	(=> (diseqlist_0 x_34 x_36)
	    (diseqlist_0 (cons_0 x_33 x_34) (cons_0 x_35 x_36)))))
(declare-fun length_0 (Nat_0 list_0) Bool)
(assert (forall ((x_0 list_0) (y_0 Nat_0) (xs_0 list_0) (x_1 Nat_0) (x_2 Nat_0))
	(=>	(and (= x_1 (S_0 x_2))
			(length_0 x_2 xs_0)
			(= x_0 (cons_0 y_0 xs_0)))
		(length_0 x_1 x_0))))
(assert (forall ((x_0 list_0) (x_3 Nat_0))
	(=>	(and (= x_3 Z_0)
			(= x_0 nil_0))
		(length_0 x_3 x_0))))
(assert (forall ((xs_1 list_0) (ys_0 list_0) (x_4 Nat_0) (x_5 Nat_0))
	(=>	(and (diseqlist_0 xs_1 ys_0)
			(= x_4 x_5)
			(length_0 x_4 xs_1)
			(length_0 x_5 ys_0))
		false)))
(check-sat)
